experiment/data/lkh-res/Vrp-Set-X-n359/Vrp-Set-X-n359-lkh/0.lkh1.vrp
NAME : 0
COMMENT : CVRP Instance
TYPE : CVRP
DIMENSION : 359
EDGE_WEIGHT_TYPE : EUC_2D
CAPACITY : 68
NODE_COORD_SECTION
1	0	0
2	86500	69300
3	63300	22000
4	17300	36100
5	8900	71400
6	35000	10200
7	30100	2400
8	83400	66300
9	84100	99700
10	39400	79000
11	27600	48800
12	77900	31200
13	93900	6600
14	59500	46200
15	94000	96400
16	45900	45900
17	43200	28000
18	37900	33800
19	12800	43900
20	40100	2200
21	6900	88700
22	49900	65700
23	63300	4600
24	71300	18200
25	80600	52500
26	54000	16900
27	69600	55900
28	57700	88800
29	29800	72500
30	41000	64400
31	51200	88900
32	75600	35200
33	40500	40700
34	85000	36500
35	73100	58800
36	9000	55300
37	69100	38300
38	92600	63100
39	95500	35100
40	99800	73600
41	92100	85400
42	53200	25700
43	23800	51300
44	97600	91200
45	56500	91200
46	89300	7400
47	59000	54800
48	9900	35500
49	29400	3900
50	5800	42900
51	47100	57300
52	52000	10900
53	48600	61100
54	40900	68200
55	29600	84300
56	97000	47900
57	71700	39000
58	15200	71100
59	93400	25500
60	25700	53900
61	27000	3100
62	82300	40900
63	20300	84900
64	77000	62700
65	63000	58100
66	78600	18600
67	38000	30000
68	97300	84700
69	98500	97500
70	73200	46500
71	69000	42800
72	91000	56800
73	72500	53900
74	18100	18600
75	81400	69400
76	70200	92700
77	94600	49200
78	98400	30500
79	38500	69600
80	4800	32300
81	94400	44000
82	81300	29300
83	49000	67600
84	72900	92300
85	71900	88300
86	67500	63700
87	16700	1400
88	9800	15900
89	47600	70900
90	40200	33900
91	91100	73400
92	59000	23000
93	12200	69800
94	15400	41800
95	16500	99800
96	21700	59900
97	76600	2100
98	92200	40700
99	83100	60700
100	7000	49400
101	22000	74000
102	1900	85500
103	75900	50700
104	81800	40900
105	50300	30400
106	59500	82700
107	25400	28200
108	20500	60700
109	33100	5700
110	11800	40400
111	57600	65800
112	55800	61100
113	62900	73200
114	89300	18200
115	43500	100000
116	27900	71500
117	2000	95300
118	54800	77400
119	49600	81300
120	34900	47400
121	33500	73200
122	54000	30500
123	87800	24500
124	82700	21100
125	10400	97600
126	65600	92000
127	64800	58500
128	35000	51700
129	6200	97900
130	50800	27700
131	33400	75900
132	63500	74300
133	64900	92700
134	3900	5000
135	41100	83700
136	97400	50900
137	50400	39800
138	1900	43000
139	81000	52800
140	73700	20200
141	97200	85900
142	54700	62200
143	41300	68300
144	87700	47100
145	60000	16600
146	54800	34600
147	55800	79200
148	41900	73400
149	63900	7000
150	27600	34100
151	53400	48600
152	97200	67200
153	54200	70900
154	81600	85800
155	8200	3800
156	21700	73300
157	46600	11200
158	57500	16500
159	90200	86100
160	41800	63100
161	77100	70200
162	79500	4600
163	13800	500
164	91500	84500
165	52000	78800
166	4000	30100
167	89600	66800
168	62600	11800
169	97900	7000
170	70800	24400
171	72900	68200
172	54800	96200
173	11700	14400
174	52000	20700
175	14500	2100
176	25500	15200
177	10700	99200
178	2800	3400
179	10700	30500
180	40100	23000
181	82400	48600
182	11200	58900
183	52900	28600
184	21600	300
185	34700	89100
186	47800	24700
187	77800	36400
188	2800	60100
189	8200	63900
190	46500	15700
191	39100	87900
192	20200	62000
193	42600	89700
194	21400	57900
195	11300	47400
196	62700	24400
197	23100	75400
198	17700	67000
199	45500	16300
200	6500	56400
201	90100	54800
202	48700	36400
203	55100	30400
204	19900	8200
205	8700	55600
206	12100	5600
207	53300	33900
208	31800	95300
209	80800	52100
210	46900	11800
211	29500	87400
212	5600	69300
213	48200	21800
214	21600	87100
215	53500	24500
216	84200	47100
217	50300	30500
218	30800	83700
219	96100	29600
220	82600	56900
221	17400	69600
222	4300	50000
223	20500	60400
224	33100	84500
225	43200	27300
226	5200	63700
227	85500	17800
228	87300	38800
229	83900	49600
230	42400	75100
231	46600	18300
232	54200	28500
233	48800	90900
234	36800	90200
235	76200	51800
236	47500	19300
237	46300	26300
238	78900	35700
239	45900	32700
240	34500	82200
241	74700	37100
242	71300	44600
243	46800	20800
244	36900	25100
245	69800	45000
246	300	58800
247	50600	20100
248	75700	30900
249	70400	23100
250	25400	12300
251	47300	39000
252	46400	80300
253	42100	10800
254	36500	67800
255	90600	59800
256	62900	17100
257	82500	51300
258	69800	50100
259	47700	22700
260	38800	23400
261	45900	22600
262	43900	42300
263	45900	28900
264	47100	32700
265	32800	98100
266	60400	39500
267	75900	41200
268	57200	24700
269	55800	24000
270	54500	33100
271	50600	36900
272	94400	58500
273	91000	40100
274	39400	96900
275	79200	31600
276	44100	14100
277	81000	56000
278	38200	41300
279	19200	71300
280	81700	46600
281	49600	37700
282	61300	13600
283	68500	29000
284	1000	68900
285	92200	52400
286	85300	52400
287	21300	100
288	13400	68600
289	48000	24000
290	33900	11400
291	58900	38900
292	23000	92100
293	92500	32600
294	71100	58000
295	78300	34700
296	46900	29500
297	93700	17900
298	48200	24900
299	48400	27700
300	82700	33800
301	60900	27200
302	83400	48500
303	25200	10000
304	13900	15300
305	16300	7400
306	41800	32600
307	31000	88400
308	53400	79500
309	10700	63200
310	73600	18400
311	81300	32400
312	90500	46500
313	51200	60600
314	58500	23700
315	56300	12400
316	77600	36500
317	7400	7000
318	36600	80900
319	22700	4100
320	38000	91300
321	80900	40700
322	76000	41700
323	35600	92600
324	70800	47700
325	60300	17500
326	81000	67100
327	91200	50800
328	38600	96400
329	29800	51000
330	81100	45600
331	78000	38200
332	52000	27400
333	74500	38200
334	33000	99800
335	84000	40900
336	44700	97600
337	82800	47200
338	80200	42800
339	62000	90400
340	10500	48200
341	48800	41800
342	72700	55100
343	10300	66900
344	80200	40800
345	46700	11900
346	21000	43900
347	12100	70000
348	18700	4000
349	71400	40100
350	12000	65700
351	43600	31600
352	24300	45300
353	63000	27700
354	25700	14900
355	43800	35000
356	29400	19500
357	57300	33900
358	37900	64400
359	35600	90500
DEMAND_SECTION
1	0
2	10
3	8
4	9
5	7
6	9
7	1
8	3
9	1
10	8
11	10
12	8
13	10
14	2
15	4
16	9
17	2
18	3
19	10
20	3
21	1
22	4
23	3
24	8
25	3
26	5
27	6
28	7
29	9
30	1
31	1
32	8
33	3
34	10
35	2
36	4
37	10
38	2
39	8
40	5
41	10
42	9
43	9
44	2
45	10
46	3
47	7
48	7
49	6
50	1
51	7
52	1
53	4
54	6
55	7
56	8
57	2
58	9
59	3
60	1
61	6
62	4
63	1
64	5
65	3
66	3
67	1
68	6
69	6
70	8
71	10
72	3
73	2
74	6
75	4
76	1
77	8
78	5
79	7
80	6
81	7
82	1
83	2
84	5
85	10
86	3
87	2
88	8
89	5
90	3
91	3
92	5
93	4
94	6
95	9
96	3
97	6
98	5
99	2
100	5
101	5
102	9
103	9
104	3
105	10
106	6
107	2
108	6
109	1
110	1
111	6
112	3
113	9
114	9
115	3
116	6
117	9
118	6
119	10
120	2
121	7
122	3
123	5
124	10
125	2
126	8
127	7
128	5
129	8
130	6
131	1
132	1
133	5
134	7
135	7
136	1
137	8
138	7
139	8
140	7
141	10
142	6
143	5
144	2
145	7
146	4
147	5
148	4
149	8
150	8
151	3
152	7
153	1
154	9
155	3
156	7
157	10
158	5
159	5
160	7
161	2
162	3
163	6
164	4
165	5
166	7
167	4
168	1
169	1
170	7
171	10
172	3
173	2
174	10
175	5
176	8
177	3
178	4
179	6
180	9
181	7
182	3
183	10
184	6
185	1
186	8
187	5
188	4
189	7
190	8
191	5
192	5
193	2
194	3
195	2
196	4
197	5
198	10
199	3
200	9
201	3
202	4
203	4
204	7
205	8
206	8
207	9
208	8
209	3
210	6
211	2
212	3
213	5
214	3
215	6
216	7
217	2
218	8
219	7
220	3
221	1
222	1
223	10
224	3
225	3
226	5
227	7
228	3
229	4
230	10
231	5
232	1
233	7
234	6
235	7
236	7
237	6
238	2
239	7
240	6
241	10
242	9
243	9
244	4
245	2
246	1
247	10
248	3
249	8
250	6
251	7
252	4
253	2
254	6
255	10
256	7
257	8
258	5
259	6
260	10
261	1
262	9
263	1
264	1
265	8
266	10
267	4
268	4
269	5
270	4
271	1
272	8
273	9
274	10
275	5
276	4
277	6
278	9
279	4
280	1
281	2
282	1
283	9
284	7
285	9
286	7
287	7
288	3
289	1
290	3
291	6
292	5
293	4
294	10
295	4
296	5
297	9
298	4
299	4
300	8
301	4
302	8
303	4
304	9
305	4
306	7
307	4
308	2
309	6
310	1
311	10
312	5
313	10
314	9
315	2
316	3
317	1
318	5
319	2
320	5
321	7
322	6
323	5
324	9
325	4
326	6
327	4
328	8
329	6
330	7
331	1
332	10
333	3
334	6
335	5
336	4
337	7
338	8
339	5
340	10
341	2
342	9
343	10
344	1
345	4
346	10
347	1
348	2
349	6
350	4
351	8
352	9
353	10
354	2
355	7
356	3
357	8
358	9
359	4
DEPOT_SECTION
1
-1
EOF
