experiment/data/lkh-res/Vrp-Set-X-n359/Vrp-Set-X-n359-lkh/0.lkh1.log
PARAMETER_FILE = baseline_results/cvrp_lkh/Vrp-Set-X-n359/Vrp-Set-X-n359-lkh/0.lkh1.par
Reading PROBLEM_FILE: "baseline_results/cvrp_lkh/Vrp-Set-X-n359/Vrp-Set-X-n359-lkh/0.lkh1.vrp" ... done
ASCENT_CANDIDATES = 50
BACKBONE_TRIALS = 0
BACKTRACKING = NO
# BWTSP =
# CANDIDATE_FILE =
CANDIDATE_SET_TYPE = ALPHA
# DISTANCE =
DEPOT = 1
# EDGE_FILE =
EXCESS = 0.00278552
EXTERNAL_SALESMEN = 0
EXTRA_CANDIDATES = 0 
EXTRA_CANDIDATE_SET_TYPE = QUADRANT
GAIN23 = NO
GAIN_CRITERION = YES
INITIAL_PERIOD = 179
INITIAL_STEP_SIZE = 1
INITIAL_TOUR_ALGORITHM = WALK
# INITIAL_TOUR_FILE = 
INITIAL_TOUR_FRACTION = 1.000
# INPUT_TOUR_FILE = 
KICK_TYPE = 4
KICKS = 1
# MAX_BREADTH =
MAKESPAN = NO
MAX_CANDIDATES = 5 
MAX_SWAPS = 0
MAX_TRIALS = 10000
# MERGE_TOUR_FILE =
MOVE_TYPE = 5 SPECIAL
MTSP_MIN_SIZE = 1
MTSP_MAX_SIZE = 358
# MTSP_SOLUTION_FILE = 
# NONSEQUENTIAL_MOVE_TYPE = 5
# OPTIMUM =
OUTPUT_TOUR_FILE = baseline_results/cvrp_lkh/Vrp-Set-X-n359/Vrp-Set-X-n359-lkh/0.lkh1.tour
PATCHING_A = 1 
PATCHING_C = 0 
# PI_FILE = 
POPMUSIC_INITIAL_TOUR = NO
POPMUSIC_MAX_NEIGHBORS = 5
POPMUSIC_SAMPLE_SIZE = 10
POPMUSIC_SOLUTIONS = 50
POPMUSIC_TRIALS = 1
POPULATION_SIZE = 10
PRECISION = 100
PROBLEM_FILE = baseline_results/cvrp_lkh/Vrp-Set-X-n359/Vrp-Set-X-n359-lkh/0.lkh1.vrp
RECOMBINATION = IPT
RESTRICTED_SEARCH = YES
RUNS = 1
SALESMEN = 29
SCALE = 1
SEED = 1234
# SINTEF_SOLUTION_FILE = 
STOP_AT_OPTIMUM = YES
SUBGRADIENT = YES
# SUBPROBLEM_SIZE =
# SUBPROBLEM_TOUR_FILE = 
SUBSEQUENT_MOVE_TYPE = 5 SPECIAL
SUBSEQUENT_PATCHING = YES
# TIME_LIMIT =
# TOTAL_TIME_LIMIT =
# TOUR_FILE = 
TRACE_LEVEL = 1
VEHICLES = 29

Lower bound = 2458946.4, Ascent time = 0.14 sec.
Cand.min = 2, Cand.avg = 4.9, Cand.max = 5
Preprocessing time = 0.14 sec.
* 1: Cost = 0_5864653, Time = 0.22 sec. 
Writing OUTPUT_TOUR_FILE: "baseline_results/cvrp_lkh/Vrp-Set-X-n359/Vrp-Set-X-n359-lkh/0.lkh1.tour" ... done
* 2: Cost = 0_5864045, Time = 0.25 sec. 
Writing OUTPUT_TOUR_FILE: "baseline_results/cvrp_lkh/Vrp-Set-X-n359/Vrp-Set-X-n359-lkh/0.lkh1.tour" ... done
* 3: Cost = 0_5842697, Time = 0.28 sec. 
Writing OUTPUT_TOUR_FILE: "baseline_results/cvrp_lkh/Vrp-Set-X-n359/Vrp-Set-X-n359-lkh/0.lkh1.tour" ... done
* 4: Cost = 0_5813227, Time = 0.29 sec. 
Writing OUTPUT_TOUR_FILE: "baseline_results/cvrp_lkh/Vrp-Set-X-n359/Vrp-Set-X-n359-lkh/0.lkh1.tour" ... done
* 5: Cost = 0_5810768, Time = 0.29 sec. 
Writing OUTPUT_TOUR_FILE: "baseline_results/cvrp_lkh/Vrp-Set-X-n359/Vrp-Set-X-n359-lkh/0.lkh1.tour" ... done
* 6: Cost = 0_5729403, Time = 0.33 sec. 
Writing OUTPUT_TOUR_FILE: "baseline_results/cvrp_lkh/Vrp-Set-X-n359/Vrp-Set-X-n359-lkh/0.lkh1.tour" ... done
* 7: Cost = 0_5723692, Time = 0.35 sec. 
Writing OUTPUT_TOUR_FILE: "baseline_results/cvrp_lkh/Vrp-Set-X-n359/Vrp-Set-X-n359-lkh/0.lkh1.tour" ... done
* 8: Cost = 0_5702521, Time = 0.37 sec. 
Writing OUTPUT_TOUR_FILE: "baseline_results/cvrp_lkh/Vrp-Set-X-n359/Vrp-Set-X-n359-lkh/0.lkh1.tour" ... done
* 12: Cost = 0_5686894, Time = 0.42 sec. 
Writing OUTPUT_TOUR_FILE: "baseline_results/cvrp_lkh/Vrp-Set-X-n359/Vrp-Set-X-n359-lkh/0.lkh1.tour" ... done
* 14: Cost = 0_5677236, Time = 0.44 sec. 
Writing OUTPUT_TOUR_FILE: "baseline_results/cvrp_lkh/Vrp-Set-X-n359/Vrp-Set-X-n359-lkh/0.lkh1.tour" ... done
* 15: Cost = 0_5672512, Time = 0.44 sec. 
Writing OUTPUT_TOUR_FILE: "baseline_results/cvrp_lkh/Vrp-Set-X-n359/Vrp-Set-X-n359-lkh/0.lkh1.tour" ... done
* 16: Cost = 0_5664191, Time = 0.46 sec. 
Writing OUTPUT_TOUR_FILE: "baseline_results/cvrp_lkh/Vrp-Set-X-n359/Vrp-Set-X-n359-lkh/0.lkh1.tour" ... done
* 19: Cost = 0_5659284, Time = 0.53 sec. 
Writing OUTPUT_TOUR_FILE: "baseline_results/cvrp_lkh/Vrp-Set-X-n359/Vrp-Set-X-n359-lkh/0.lkh1.tour" ... done
* 20: Cost = 0_5638772, Time = 0.59 sec. 
Writing OUTPUT_TOUR_FILE: "baseline_results/cvrp_lkh/Vrp-Set-X-n359/Vrp-Set-X-n359-lkh/0.lkh1.tour" ... done
* 21: Cost = 0_5629604, Time = 0.59 sec. 
Writing OUTPUT_TOUR_FILE: "baseline_results/cvrp_lkh/Vrp-Set-X-n359/Vrp-Set-X-n359-lkh/0.lkh1.tour" ... done
* 22: Cost = 0_5587473, Time = 0.62 sec. 
Writing OUTPUT_TOUR_FILE: "baseline_results/cvrp_lkh/Vrp-Set-X-n359/Vrp-Set-X-n359-lkh/0.lkh1.tour" ... done
* 23: Cost = 0_5578418, Time = 0.63 sec. 
Writing OUTPUT_TOUR_FILE: "baseline_results/cvrp_lkh/Vrp-Set-X-n359/Vrp-Set-X-n359-lkh/0.lkh1.tour" ... done
* 24: Cost = 0_5563824, Time = 0.66 sec. 
Writing OUTPUT_TOUR_FILE: "baseline_results/cvrp_lkh/Vrp-Set-X-n359/Vrp-Set-X-n359-lkh/0.lkh1.tour" ... done
* 31: Cost = 0_5560560, Time = 0.73 sec. 
Writing OUTPUT_TOUR_FILE: "baseline_results/cvrp_lkh/Vrp-Set-X-n359/Vrp-Set-X-n359-lkh/0.lkh1.tour" ... done
* 35: Cost = 0_5528622, Time = 0.80 sec. 
Writing OUTPUT_TOUR_FILE: "baseline_results/cvrp_lkh/Vrp-Set-X-n359/Vrp-Set-X-n359-lkh/0.lkh1.tour" ... done
* 36: Cost = 0_5528609, Time = 0.80 sec. 
Writing OUTPUT_TOUR_FILE: "baseline_results/cvrp_lkh/Vrp-Set-X-n359/Vrp-Set-X-n359-lkh/0.lkh1.tour" ... done
* 39: Cost = 0_5524331, Time = 0.86 sec. 
Writing OUTPUT_TOUR_FILE: "baseline_results/cvrp_lkh/Vrp-Set-X-n359/Vrp-Set-X-n359-lkh/0.lkh1.tour" ... done
* 40: Cost = 0_5509184, Time = 0.87 sec. 
Writing OUTPUT_TOUR_FILE: "baseline_results/cvrp_lkh/Vrp-Set-X-n359/Vrp-Set-X-n359-lkh/0.lkh1.tour" ... done
* 41: Cost = 0_5464064, Time = 0.89 sec. 
Writing OUTPUT_TOUR_FILE: "baseline_results/cvrp_lkh/Vrp-Set-X-n359/Vrp-Set-X-n359-lkh/0.lkh1.tour" ... done
* 43: Cost = 0_5449082, Time = 0.94 sec. 
Writing OUTPUT_TOUR_FILE: "baseline_results/cvrp_lkh/Vrp-Set-X-n359/Vrp-Set-X-n359-lkh/0.lkh1.tour" ... done
* 46: Cost = 0_5446714, Time = 0.96 sec. 
Writing OUTPUT_TOUR_FILE: "baseline_results/cvrp_lkh/Vrp-Set-X-n359/Vrp-Set-X-n359-lkh/0.lkh1.tour" ... done
* 55: Cost = 0_5445100, Time = 1.03 sec. 
Writing OUTPUT_TOUR_FILE: "baseline_results/cvrp_lkh/Vrp-Set-X-n359/Vrp-Set-X-n359-lkh/0.lkh1.tour" ... done
* 57: Cost = 0_5441582, Time = 1.06 sec. 
Writing OUTPUT_TOUR_FILE: "baseline_results/cvrp_lkh/Vrp-Set-X-n359/Vrp-Set-X-n359-lkh/0.lkh1.tour" ... done
* 59: Cost = 0_5440399, Time = 1.07 sec. 
Writing OUTPUT_TOUR_FILE: "baseline_results/cvrp_lkh/Vrp-Set-X-n359/Vrp-Set-X-n359-lkh/0.lkh1.tour" ... done
* 60: Cost = 0_5439932, Time = 1.15 sec. 
Writing OUTPUT_TOUR_FILE: "baseline_results/cvrp_lkh/Vrp-Set-X-n359/Vrp-Set-X-n359-lkh/0.lkh1.tour" ... done
* 64: Cost = 0_5433985, Time = 1.17 sec. 
Writing OUTPUT_TOUR_FILE: "baseline_results/cvrp_lkh/Vrp-Set-X-n359/Vrp-Set-X-n359-lkh/0.lkh1.tour" ... done
* 69: Cost = 0_5424202, Time = 1.20 sec. 
Writing OUTPUT_TOUR_FILE: "baseline_results/cvrp_lkh/Vrp-Set-X-n359/Vrp-Set-X-n359-lkh/0.lkh1.tour" ... done
* 70: Cost = 0_5424194, Time = 1.21 sec. 
Writing OUTPUT_TOUR_FILE: "baseline_results/cvrp_lkh/Vrp-Set-X-n359/Vrp-Set-X-n359-lkh/0.lkh1.tour" ... done
* 71: Cost = 0_5416957, Time = 1.25 sec. 
Writing OUTPUT_TOUR_FILE: "baseline_results/cvrp_lkh/Vrp-Set-X-n359/Vrp-Set-X-n359-lkh/0.lkh1.tour" ... done
* 78: Cost = 0_5416598, Time = 1.37 sec. 
Writing OUTPUT_TOUR_FILE: "baseline_results/cvrp_lkh/Vrp-Set-X-n359/Vrp-Set-X-n359-lkh/0.lkh1.tour" ... done
* 83: Cost = 0_5415109, Time = 1.43 sec. 
Writing OUTPUT_TOUR_FILE: "baseline_results/cvrp_lkh/Vrp-Set-X-n359/Vrp-Set-X-n359-lkh/0.lkh1.tour" ... done
* 85: Cost = 0_5410313, Time = 1.47 sec. 
Writing OUTPUT_TOUR_FILE: "baseline_results/cvrp_lkh/Vrp-Set-X-n359/Vrp-Set-X-n359-lkh/0.lkh1.tour" ... done
* 87: Cost = 0_5408164, Time = 1.48 sec. 
Writing OUTPUT_TOUR_FILE: "baseline_results/cvrp_lkh/Vrp-Set-X-n359/Vrp-Set-X-n359-lkh/0.lkh1.tour" ... done
* 88: Cost = 0_5406824, Time = 1.48 sec. 
Writing OUTPUT_TOUR_FILE: "baseline_results/cvrp_lkh/Vrp-Set-X-n359/Vrp-Set-X-n359-lkh/0.lkh1.tour" ... done
* 93: Cost = 0_5398246, Time = 1.71 sec. 
Writing OUTPUT_TOUR_FILE: "baseline_results/cvrp_lkh/Vrp-Set-X-n359/Vrp-Set-X-n359-lkh/0.lkh1.tour" ... done
* 95: Cost = 0_5397510, Time = 1.81 sec. 
Writing OUTPUT_TOUR_FILE: "baseline_results/cvrp_lkh/Vrp-Set-X-n359/Vrp-Set-X-n359-lkh/0.lkh1.tour" ... done
* 96: Cost = 0_5394962, Time = 1.82 sec. 
Writing OUTPUT_TOUR_FILE: "baseline_results/cvrp_lkh/Vrp-Set-X-n359/Vrp-Set-X-n359-lkh/0.lkh1.tour" ... done
* 115: Cost = 0_5390645, Time = 2.45 sec. 
Writing OUTPUT_TOUR_FILE: "baseline_results/cvrp_lkh/Vrp-Set-X-n359/Vrp-Set-X-n359-lkh/0.lkh1.tour" ... done
* 121: Cost = 0_5379800, Time = 2.64 sec. 
Writing OUTPUT_TOUR_FILE: "baseline_results/cvrp_lkh/Vrp-Set-X-n359/Vrp-Set-X-n359-lkh/0.lkh1.tour" ... done
* 123: Cost = 0_5379521, Time = 2.66 sec. 
Writing OUTPUT_TOUR_FILE: "baseline_results/cvrp_lkh/Vrp-Set-X-n359/Vrp-Set-X-n359-lkh/0.lkh1.tour" ... done
* 126: Cost = 0_5379274, Time = 2.70 sec. 
Writing OUTPUT_TOUR_FILE: "baseline_results/cvrp_lkh/Vrp-Set-X-n359/Vrp-Set-X-n359-lkh/0.lkh1.tour" ... done
* 129: Cost = 0_5377125, Time = 2.73 sec. 
Writing OUTPUT_TOUR_FILE: "baseline_results/cvrp_lkh/Vrp-Set-X-n359/Vrp-Set-X-n359-lkh/0.lkh1.tour" ... done
* 134: Cost = 0_5373692, Time = 2.75 sec. 
Writing OUTPUT_TOUR_FILE: "baseline_results/cvrp_lkh/Vrp-Set-X-n359/Vrp-Set-X-n359-lkh/0.lkh1.tour" ... done
* 135: Cost = 0_5373678, Time = 2.77 sec. 
Writing OUTPUT_TOUR_FILE: "baseline_results/cvrp_lkh/Vrp-Set-X-n359/Vrp-Set-X-n359-lkh/0.lkh1.tour" ... done
* 136: Cost = 0_5373539, Time = 2.79 sec. 
Writing OUTPUT_TOUR_FILE: "baseline_results/cvrp_lkh/Vrp-Set-X-n359/Vrp-Set-X-n359-lkh/0.lkh1.tour" ... done
* 143: Cost = 0_5373329, Time = 2.88 sec. 
Writing OUTPUT_TOUR_FILE: "baseline_results/cvrp_lkh/Vrp-Set-X-n359/Vrp-Set-X-n359-lkh/0.lkh1.tour" ... done
* 146: Cost = 0_5373269, Time = 2.99 sec. 
Writing OUTPUT_TOUR_FILE: "baseline_results/cvrp_lkh/Vrp-Set-X-n359/Vrp-Set-X-n359-lkh/0.lkh1.tour" ... done
* 147: Cost = 0_5370636, Time = 3.01 sec. 
Writing OUTPUT_TOUR_FILE: "baseline_results/cvrp_lkh/Vrp-Set-X-n359/Vrp-Set-X-n359-lkh/0.lkh1.tour" ... done
* 148: Cost = 0_5367949, Time = 3.03 sec. 
Writing OUTPUT_TOUR_FILE: "baseline_results/cvrp_lkh/Vrp-Set-X-n359/Vrp-Set-X-n359-lkh/0.lkh1.tour" ... done
* 173: Cost = 0_5367927, Time = 3.78 sec. 
Writing OUTPUT_TOUR_FILE: "baseline_results/cvrp_lkh/Vrp-Set-X-n359/Vrp-Set-X-n359-lkh/0.lkh1.tour" ... done
* 186: Cost = 0_5365844, Time = 3.94 sec. 
Writing OUTPUT_TOUR_FILE: "baseline_results/cvrp_lkh/Vrp-Set-X-n359/Vrp-Set-X-n359-lkh/0.lkh1.tour" ... done
* 196: Cost = 0_5365109, Time = 4.12 sec. 
Writing OUTPUT_TOUR_FILE: "baseline_results/cvrp_lkh/Vrp-Set-X-n359/Vrp-Set-X-n359-lkh/0.lkh1.tour" ... done
* 197: Cost = 0_5364571, Time = 4.13 sec. 
Writing OUTPUT_TOUR_FILE: "baseline_results/cvrp_lkh/Vrp-Set-X-n359/Vrp-Set-X-n359-lkh/0.lkh1.tour" ... done
* 203: Cost = 0_5364435, Time = 4.27 sec. 
Writing OUTPUT_TOUR_FILE: "baseline_results/cvrp_lkh/Vrp-Set-X-n359/Vrp-Set-X-n359-lkh/0.lkh1.tour" ... done
* 217: Cost = 0_5358224, Time = 4.58 sec. 
Writing OUTPUT_TOUR_FILE: "baseline_results/cvrp_lkh/Vrp-Set-X-n359/Vrp-Set-X-n359-lkh/0.lkh1.tour" ... done
* 219: Cost = 0_5356931, Time = 4.60 sec. 
Writing OUTPUT_TOUR_FILE: "baseline_results/cvrp_lkh/Vrp-Set-X-n359/Vrp-Set-X-n359-lkh/0.lkh1.tour" ... done
* 226: Cost = 0_5356057, Time = 4.86 sec. 
Writing OUTPUT_TOUR_FILE: "baseline_results/cvrp_lkh/Vrp-Set-X-n359/Vrp-Set-X-n359-lkh/0.lkh1.tour" ... done
* 232: Cost = 0_5355904, Time = 4.98 sec. 
Writing OUTPUT_TOUR_FILE: "baseline_results/cvrp_lkh/Vrp-Set-X-n359/Vrp-Set-X-n359-lkh/0.lkh1.tour" ... done
* 247: Cost = 0_5355700, Time = 5.20 sec. 
Writing OUTPUT_TOUR_FILE: "baseline_results/cvrp_lkh/Vrp-Set-X-n359/Vrp-Set-X-n359-lkh/0.lkh1.tour" ... done
* 265: Cost = 0_5353626, Time = 5.69 sec. 
Writing OUTPUT_TOUR_FILE: "baseline_results/cvrp_lkh/Vrp-Set-X-n359/Vrp-Set-X-n359-lkh/0.lkh1.tour" ... done
* 268: Cost = 0_5353620, Time = 5.76 sec. 
Writing OUTPUT_TOUR_FILE: "baseline_results/cvrp_lkh/Vrp-Set-X-n359/Vrp-Set-X-n359-lkh/0.lkh1.tour" ... done
* 273: Cost = 0_5348342, Time = 5.86 sec. 
Writing OUTPUT_TOUR_FILE: "baseline_results/cvrp_lkh/Vrp-Set-X-n359/Vrp-Set-X-n359-lkh/0.lkh1.tour" ... done
* 278: Cost = 0_5344960, Time = 5.99 sec. 
Writing OUTPUT_TOUR_FILE: "baseline_results/cvrp_lkh/Vrp-Set-X-n359/Vrp-Set-X-n359-lkh/0.lkh1.tour" ... done
* 288: Cost = 0_5344771, Time = 6.30 sec. 
Writing OUTPUT_TOUR_FILE: "baseline_results/cvrp_lkh/Vrp-Set-X-n359/Vrp-Set-X-n359-lkh/0.lkh1.tour" ... done
* 300: Cost = 0_5336003, Time = 6.44 sec. 
Writing OUTPUT_TOUR_FILE: "baseline_results/cvrp_lkh/Vrp-Set-X-n359/Vrp-Set-X-n359-lkh/0.lkh1.tour" ... done
* 302: Cost = 0_5323843, Time = 6.60 sec. 
Writing OUTPUT_TOUR_FILE: "baseline_results/cvrp_lkh/Vrp-Set-X-n359/Vrp-Set-X-n359-lkh/0.lkh1.tour" ... done
* 303: Cost = 0_5319853, Time = 6.62 sec. 
Writing OUTPUT_TOUR_FILE: "baseline_results/cvrp_lkh/Vrp-Set-X-n359/Vrp-Set-X-n359-lkh/0.lkh1.tour" ... done
* 314: Cost = 0_5318839, Time = 6.79 sec. 
Writing OUTPUT_TOUR_FILE: "baseline_results/cvrp_lkh/Vrp-Set-X-n359/Vrp-Set-X-n359-lkh/0.lkh1.tour" ... done
* 316: Cost = 0_5317828, Time = 6.80 sec. 
Writing OUTPUT_TOUR_FILE: "baseline_results/cvrp_lkh/Vrp-Set-X-n359/Vrp-Set-X-n359-lkh/0.lkh1.tour" ... done
* 322: Cost = 0_5314184, Time = 6.95 sec. 
Writing OUTPUT_TOUR_FILE: "baseline_results/cvrp_lkh/Vrp-Set-X-n359/Vrp-Set-X-n359-lkh/0.lkh1.tour" ... done
* 327: Cost = 0_5313785, Time = 7.06 sec. 
Writing OUTPUT_TOUR_FILE: "baseline_results/cvrp_lkh/Vrp-Set-X-n359/Vrp-Set-X-n359-lkh/0.lkh1.tour" ... done
* 329: Cost = 0_5307970, Time = 7.13 sec. 
Writing OUTPUT_TOUR_FILE: "baseline_results/cvrp_lkh/Vrp-Set-X-n359/Vrp-Set-X-n359-lkh/0.lkh1.tour" ... done
* 343: Cost = 0_5307213, Time = 7.52 sec. 
Writing OUTPUT_TOUR_FILE: "baseline_results/cvrp_lkh/Vrp-Set-X-n359/Vrp-Set-X-n359-lkh/0.lkh1.tour" ... done
* 344: Cost = 0_5307030, Time = 7.53 sec. 
Writing OUTPUT_TOUR_FILE: "baseline_results/cvrp_lkh/Vrp-Set-X-n359/Vrp-Set-X-n359-lkh/0.lkh1.tour" ... done
* 351: Cost = 0_5301176, Time = 7.60 sec. 
Writing OUTPUT_TOUR_FILE: "baseline_results/cvrp_lkh/Vrp-Set-X-n359/Vrp-Set-X-n359-lkh/0.lkh1.tour" ... done
* 364: Cost = 0_5299575, Time = 8.00 sec. 
Writing OUTPUT_TOUR_FILE: "baseline_results/cvrp_lkh/Vrp-Set-X-n359/Vrp-Set-X-n359-lkh/0.lkh1.tour" ... done
* 369: Cost = 0_5290391, Time = 8.06 sec. 
Writing OUTPUT_TOUR_FILE: "baseline_results/cvrp_lkh/Vrp-Set-X-n359/Vrp-Set-X-n359-lkh/0.lkh1.tour" ... done
* 376: Cost = 0_5290378, Time = 8.17 sec. 
Writing OUTPUT_TOUR_FILE: "baseline_results/cvrp_lkh/Vrp-Set-X-n359/Vrp-Set-X-n359-lkh/0.lkh1.tour" ... done
* 378: Cost = 0_5288417, Time = 8.20 sec. 
Writing OUTPUT_TOUR_FILE: "baseline_results/cvrp_lkh/Vrp-Set-X-n359/Vrp-Set-X-n359-lkh/0.lkh1.tour" ... done
* 384: Cost = 0_5288395, Time = 8.33 sec. 
Writing OUTPUT_TOUR_FILE: "baseline_results/cvrp_lkh/Vrp-Set-X-n359/Vrp-Set-X-n359-lkh/0.lkh1.tour" ... done
* 388: Cost = 0_5286461, Time = 8.39 sec. 
Writing OUTPUT_TOUR_FILE: "baseline_results/cvrp_lkh/Vrp-Set-X-n359/Vrp-Set-X-n359-lkh/0.lkh1.tour" ... done
* 392: Cost = 0_5285090, Time = 8.40 sec. 
Writing OUTPUT_TOUR_FILE: "baseline_results/cvrp_lkh/Vrp-Set-X-n359/Vrp-Set-X-n359-lkh/0.lkh1.tour" ... done
* 398: Cost = 0_5284853, Time = 8.49 sec. 
Writing OUTPUT_TOUR_FILE: "baseline_results/cvrp_lkh/Vrp-Set-X-n359/Vrp-Set-X-n359-lkh/0.lkh1.tour" ... done
* 404: Cost = 0_5284774, Time = 8.70 sec. 
Writing OUTPUT_TOUR_FILE: "baseline_results/cvrp_lkh/Vrp-Set-X-n359/Vrp-Set-X-n359-lkh/0.lkh1.tour" ... done
* 498: Cost = 0_5283660, Time = 10.79 sec. 
Writing OUTPUT_TOUR_FILE: "baseline_results/cvrp_lkh/Vrp-Set-X-n359/Vrp-Set-X-n359-lkh/0.lkh1.tour" ... done
* 508: Cost = 0_5283512, Time = 11.08 sec. 
Writing OUTPUT_TOUR_FILE: "baseline_results/cvrp_lkh/Vrp-Set-X-n359/Vrp-Set-X-n359-lkh/0.lkh1.tour" ... done
* 547: Cost = 0_5283421, Time = 12.28 sec. 
Writing OUTPUT_TOUR_FILE: "baseline_results/cvrp_lkh/Vrp-Set-X-n359/Vrp-Set-X-n359-lkh/0.lkh1.tour" ... done
* 570: Cost = 0_5283372, Time = 13.12 sec. 
Writing OUTPUT_TOUR_FILE: "baseline_results/cvrp_lkh/Vrp-Set-X-n359/Vrp-Set-X-n359-lkh/0.lkh1.tour" ... done
* 572: Cost = 0_5283336, Time = 13.17 sec. 
Writing OUTPUT_TOUR_FILE: "baseline_results/cvrp_lkh/Vrp-Set-X-n359/Vrp-Set-X-n359-lkh/0.lkh1.tour" ... done
* 580: Cost = 0_5282957, Time = 13.44 sec. 
Writing OUTPUT_TOUR_FILE: "baseline_results/cvrp_lkh/Vrp-Set-X-n359/Vrp-Set-X-n359-lkh/0.lkh1.tour" ... done
* 587: Cost = 0_5282952, Time = 13.54 sec. 
Writing OUTPUT_TOUR_FILE: "baseline_results/cvrp_lkh/Vrp-Set-X-n359/Vrp-Set-X-n359-lkh/0.lkh1.tour" ... done
* 590: Cost = 0_5279393, Time = 13.57 sec. 
Writing OUTPUT_TOUR_FILE: "baseline_results/cvrp_lkh/Vrp-Set-X-n359/Vrp-Set-X-n359-lkh/0.lkh1.tour" ... done
* 593: Cost = 0_5277464, Time = 13.67 sec. 
Writing OUTPUT_TOUR_FILE: "baseline_results/cvrp_lkh/Vrp-Set-X-n359/Vrp-Set-X-n359-lkh/0.lkh1.tour" ... done
* 599: Cost = 0_5276749, Time = 13.72 sec. 
Writing OUTPUT_TOUR_FILE: "baseline_results/cvrp_lkh/Vrp-Set-X-n359/Vrp-Set-X-n359-lkh/0.lkh1.tour" ... done
* 603: Cost = 0_5276374, Time = 13.83 sec. 
Writing OUTPUT_TOUR_FILE: "baseline_results/cvrp_lkh/Vrp-Set-X-n359/Vrp-Set-X-n359-lkh/0.lkh1.tour" ... done
* 610: Cost = 0_5275912, Time = 13.93 sec. 
Writing OUTPUT_TOUR_FILE: "baseline_results/cvrp_lkh/Vrp-Set-X-n359/Vrp-Set-X-n359-lkh/0.lkh1.tour" ... done
* 617: Cost = 0_5275285, Time = 14.24 sec. 
Writing OUTPUT_TOUR_FILE: "baseline_results/cvrp_lkh/Vrp-Set-X-n359/Vrp-Set-X-n359-lkh/0.lkh1.tour" ... done
* 634: Cost = 0_5275215, Time = 14.65 sec. 
Writing OUTPUT_TOUR_FILE: "baseline_results/cvrp_lkh/Vrp-Set-X-n359/Vrp-Set-X-n359-lkh/0.lkh1.tour" ... done
* 653: Cost = 0_5261677, Time = 15.33 sec. 
Writing OUTPUT_TOUR_FILE: "baseline_results/cvrp_lkh/Vrp-Set-X-n359/Vrp-Set-X-n359-lkh/0.lkh1.tour" ... done
* 670: Cost = 0_5260940, Time = 15.75 sec. 
Writing OUTPUT_TOUR_FILE: "baseline_results/cvrp_lkh/Vrp-Set-X-n359/Vrp-Set-X-n359-lkh/0.lkh1.tour" ... done
* 674: Cost = 0_5260300, Time = 15.82 sec. 
Writing OUTPUT_TOUR_FILE: "baseline_results/cvrp_lkh/Vrp-Set-X-n359/Vrp-Set-X-n359-lkh/0.lkh1.tour" ... done
* 691: Cost = 0_5260109, Time = 16.02 sec. 
Writing OUTPUT_TOUR_FILE: "baseline_results/cvrp_lkh/Vrp-Set-X-n359/Vrp-Set-X-n359-lkh/0.lkh1.tour" ... done
* 692: Cost = 0_5260074, Time = 16.03 sec. 
Writing OUTPUT_TOUR_FILE: "baseline_results/cvrp_lkh/Vrp-Set-X-n359/Vrp-Set-X-n359-lkh/0.lkh1.tour" ... done
* 706: Cost = 0_5259198, Time = 16.40 sec. 
Writing OUTPUT_TOUR_FILE: "baseline_results/cvrp_lkh/Vrp-Set-X-n359/Vrp-Set-X-n359-lkh/0.lkh1.tour" ... done
* 710: Cost = 0_5258103, Time = 16.46 sec. 
Writing OUTPUT_TOUR_FILE: "baseline_results/cvrp_lkh/Vrp-Set-X-n359/Vrp-Set-X-n359-lkh/0.lkh1.tour" ... done
* 729: Cost = 0_5257909, Time = 17.22 sec. 
Writing OUTPUT_TOUR_FILE: "baseline_results/cvrp_lkh/Vrp-Set-X-n359/Vrp-Set-X-n359-lkh/0.lkh1.tour" ... done
* 758: Cost = 0_5257618, Time = 17.94 sec. 
Writing OUTPUT_TOUR_FILE: "baseline_results/cvrp_lkh/Vrp-Set-X-n359/Vrp-Set-X-n359-lkh/0.lkh1.tour" ... done
* 781: Cost = 0_5256646, Time = 18.75 sec. 
Writing OUTPUT_TOUR_FILE: "baseline_results/cvrp_lkh/Vrp-Set-X-n359/Vrp-Set-X-n359-lkh/0.lkh1.tour" ... done
* 783: Cost = 0_5256336, Time = 18.80 sec. 
Writing OUTPUT_TOUR_FILE: "baseline_results/cvrp_lkh/Vrp-Set-X-n359/Vrp-Set-X-n359-lkh/0.lkh1.tour" ... done
* 814: Cost = 0_5255939, Time = 19.55 sec. 
Writing OUTPUT_TOUR_FILE: "baseline_results/cvrp_lkh/Vrp-Set-X-n359/Vrp-Set-X-n359-lkh/0.lkh1.tour" ... done
* 815: Cost = 0_5255639, Time = 19.56 sec. 
Writing OUTPUT_TOUR_FILE: "baseline_results/cvrp_lkh/Vrp-Set-X-n359/Vrp-Set-X-n359-lkh/0.lkh1.tour" ... done
* 831: Cost = 0_5255306, Time = 19.88 sec. 
Writing OUTPUT_TOUR_FILE: "baseline_results/cvrp_lkh/Vrp-Set-X-n359/Vrp-Set-X-n359-lkh/0.lkh1.tour" ... done
* 834: Cost = 0_5255085, Time = 19.90 sec. 
Writing OUTPUT_TOUR_FILE: "baseline_results/cvrp_lkh/Vrp-Set-X-n359/Vrp-Set-X-n359-lkh/0.lkh1.tour" ... done
* 837: Cost = 0_5252922, Time = 20.02 sec. 
Writing OUTPUT_TOUR_FILE: "baseline_results/cvrp_lkh/Vrp-Set-X-n359/Vrp-Set-X-n359-lkh/0.lkh1.tour" ... done
* 859: Cost = 0_5252598, Time = 20.52 sec. 
Writing OUTPUT_TOUR_FILE: "baseline_results/cvrp_lkh/Vrp-Set-X-n359/Vrp-Set-X-n359-lkh/0.lkh1.tour" ... done
* 885: Cost = 0_5252460, Time = 21.33 sec. 
Writing OUTPUT_TOUR_FILE: "baseline_results/cvrp_lkh/Vrp-Set-X-n359/Vrp-Set-X-n359-lkh/0.lkh1.tour" ... done
* 1026: Cost = 0_5251591, Time = 24.94 sec. 
Writing OUTPUT_TOUR_FILE: "baseline_results/cvrp_lkh/Vrp-Set-X-n359/Vrp-Set-X-n359-lkh/0.lkh1.tour" ... done
* 1029: Cost = 0_5249535, Time = 24.96 sec. 
Writing OUTPUT_TOUR_FILE: "baseline_results/cvrp_lkh/Vrp-Set-X-n359/Vrp-Set-X-n359-lkh/0.lkh1.tour" ... done
* 1033: Cost = 0_5245702, Time = 24.97 sec. 
Writing OUTPUT_TOUR_FILE: "baseline_results/cvrp_lkh/Vrp-Set-X-n359/Vrp-Set-X-n359-lkh/0.lkh1.tour" ... done
* 1039: Cost = 0_5244571, Time = 25.26 sec. 
Writing OUTPUT_TOUR_FILE: "baseline_results/cvrp_lkh/Vrp-Set-X-n359/Vrp-Set-X-n359-lkh/0.lkh1.tour" ... done
* 1047: Cost = 0_5243623, Time = 25.39 sec. 
Writing OUTPUT_TOUR_FILE: "baseline_results/cvrp_lkh/Vrp-Set-X-n359/Vrp-Set-X-n359-lkh/0.lkh1.tour" ... done
* 1144: Cost = 0_5243134, Time = 28.38 sec. 
Writing OUTPUT_TOUR_FILE: "baseline_results/cvrp_lkh/Vrp-Set-X-n359/Vrp-Set-X-n359-lkh/0.lkh1.tour" ... done
* 1214: Cost = 0_5236989, Time = 30.01 sec. 
Writing OUTPUT_TOUR_FILE: "baseline_results/cvrp_lkh/Vrp-Set-X-n359/Vrp-Set-X-n359-lkh/0.lkh1.tour" ... done
* 1237: Cost = 0_5236671, Time = 30.48 sec. 
Writing OUTPUT_TOUR_FILE: "baseline_results/cvrp_lkh/Vrp-Set-X-n359/Vrp-Set-X-n359-lkh/0.lkh1.tour" ... done
* 1270: Cost = 0_5230691, Time = 31.31 sec. 
Writing OUTPUT_TOUR_FILE: "baseline_results/cvrp_lkh/Vrp-Set-X-n359/Vrp-Set-X-n359-lkh/0.lkh1.tour" ... done
* 1274: Cost = 0_5230563, Time = 31.42 sec. 
Writing OUTPUT_TOUR_FILE: "baseline_results/cvrp_lkh/Vrp-Set-X-n359/Vrp-Set-X-n359-lkh/0.lkh1.tour" ... done
* 1283: Cost = 0_5230525, Time = 31.77 sec. 
Writing OUTPUT_TOUR_FILE: "baseline_results/cvrp_lkh/Vrp-Set-X-n359/Vrp-Set-X-n359-lkh/0.lkh1.tour" ... done
* 1599: Cost = 0_5230333, Time = 40.86 sec. 
Writing OUTPUT_TOUR_FILE: "baseline_results/cvrp_lkh/Vrp-Set-X-n359/Vrp-Set-X-n359-lkh/0.lkh1.tour" ... done
* 1725: Cost = 0_5229861, Time = 44.25 sec. 
Writing OUTPUT_TOUR_FILE: "baseline_results/cvrp_lkh/Vrp-Set-X-n359/Vrp-Set-X-n359-lkh/0.lkh1.tour" ... done
* 1959: Cost = 0_5229027, Time = 51.14 sec. 
Writing OUTPUT_TOUR_FILE: "baseline_results/cvrp_lkh/Vrp-Set-X-n359/Vrp-Set-X-n359-lkh/0.lkh1.tour" ... done
* 2202: Cost = 0_5225767, Time = 57.24 sec. 
Writing OUTPUT_TOUR_FILE: "baseline_results/cvrp_lkh/Vrp-Set-X-n359/Vrp-Set-X-n359-lkh/0.lkh1.tour" ... done
* 2394: Cost = 0_5225698, Time = 63.10 sec. 
Writing OUTPUT_TOUR_FILE: "baseline_results/cvrp_lkh/Vrp-Set-X-n359/Vrp-Set-X-n359-lkh/0.lkh1.tour" ... done
* 2395: Cost = 0_5225202, Time = 63.11 sec. 
Writing OUTPUT_TOUR_FILE: "baseline_results/cvrp_lkh/Vrp-Set-X-n359/Vrp-Set-X-n359-lkh/0.lkh1.tour" ... done
* 2398: Cost = 0_5224076, Time = 63.16 sec. 
Writing OUTPUT_TOUR_FILE: "baseline_results/cvrp_lkh/Vrp-Set-X-n359/Vrp-Set-X-n359-lkh/0.lkh1.tour" ... done
* 2481: Cost = 0_5224067, Time = 65.75 sec. 
Writing OUTPUT_TOUR_FILE: "baseline_results/cvrp_lkh/Vrp-Set-X-n359/Vrp-Set-X-n359-lkh/0.lkh1.tour" ... done
* 2581: Cost = 0_5223822, Time = 68.64 sec. 
Writing OUTPUT_TOUR_FILE: "baseline_results/cvrp_lkh/Vrp-Set-X-n359/Vrp-Set-X-n359-lkh/0.lkh1.tour" ... done
* 2847: Cost = 0_5222905, Time = 76.58 sec. 
Writing OUTPUT_TOUR_FILE: "baseline_results/cvrp_lkh/Vrp-Set-X-n359/Vrp-Set-X-n359-lkh/0.lkh1.tour" ... done
* 2878: Cost = 0_5222284, Time = 77.29 sec. 
Writing OUTPUT_TOUR_FILE: "baseline_results/cvrp_lkh/Vrp-Set-X-n359/Vrp-Set-X-n359-lkh/0.lkh1.tour" ... done
* 2989: Cost = 0_5222218, Time = 80.42 sec. 
Writing OUTPUT_TOUR_FILE: "baseline_results/cvrp_lkh/Vrp-Set-X-n359/Vrp-Set-X-n359-lkh/0.lkh1.tour" ... done
* 3070: Cost = 0_5222178, Time = 82.58 sec. 
Writing OUTPUT_TOUR_FILE: "baseline_results/cvrp_lkh/Vrp-Set-X-n359/Vrp-Set-X-n359-lkh/0.lkh1.tour" ... done
* 3175: Cost = 0_5221900, Time = 85.49 sec. 
Writing OUTPUT_TOUR_FILE: "baseline_results/cvrp_lkh/Vrp-Set-X-n359/Vrp-Set-X-n359-lkh/0.lkh1.tour" ... done
* 3717: Cost = 0_5221871, Time = 100.42 sec. 
Writing OUTPUT_TOUR_FILE: "baseline_results/cvrp_lkh/Vrp-Set-X-n359/Vrp-Set-X-n359-lkh/0.lkh1.tour" ... done
* 4352: Cost = 0_5220977, Time = 117.52 sec. 
Writing OUTPUT_TOUR_FILE: "baseline_results/cvrp_lkh/Vrp-Set-X-n359/Vrp-Set-X-n359-lkh/0.lkh1.tour" ... done
* 4379: Cost = 0_5220284, Time = 118.05 sec. 
Writing OUTPUT_TOUR_FILE: "baseline_results/cvrp_lkh/Vrp-Set-X-n359/Vrp-Set-X-n359-lkh/0.lkh1.tour" ... done
* 4403: Cost = 0_5220260, Time = 118.68 sec. 
Writing OUTPUT_TOUR_FILE: "baseline_results/cvrp_lkh/Vrp-Set-X-n359/Vrp-Set-X-n359-lkh/0.lkh1.tour" ... done
* 4425: Cost = 0_5219986, Time = 119.42 sec. 
Writing OUTPUT_TOUR_FILE: "baseline_results/cvrp_lkh/Vrp-Set-X-n359/Vrp-Set-X-n359-lkh/0.lkh1.tour" ... done
* 5592: Cost = 0_5219977, Time = 149.88 sec. 
Writing OUTPUT_TOUR_FILE: "baseline_results/cvrp_lkh/Vrp-Set-X-n359/Vrp-Set-X-n359-lkh/0.lkh1.tour" ... done
Population:
  1: 0_5219977
Run 1: Cost = 0_5219977, Time = 276.30 sec. 

Successes/Runs = 0/1 
Cost.min = 5219977, Cost.avg = 5219977.00, Cost.max = 5219977
Gap.min = 0.0000%, Gap.avg = 0.0000%, Gap.max = 0.0000%
Penalty.min = 0, Penalty.avg = 0.00, Penalty.max = 0
Trials.min = 10000, Trials.avg = 10000.0, Trials.max = 10000
Time.min = 276.30 sec., Time.avg = 276.30 sec., Time.max = 276.30 sec.
Time.total = 276.44 sec.
  Size.min = 9, Size.max = 16, Penalty = 0
  Cost.min = 52676, Cost.max = 295142, Cost.sum = 5219977
Best CVRP solution:
  Cost = 0_5219977

