experiment/data/lkh-res/Vrp-Set-X-n359/Vrp-Set-X-n359-lkh/0.lkh1.tour
NAME : 0.5219977.tour
COMMENT : Length = 5219977
COMMENT : Found by LKH-3 [Keld Helsgaun] Tue Apr  9 07:24:01 2024
TYPE : TOUR
DIMENSION : 387
TOUR_SECTION
1
119
165
308
339
133
126
76
84
85
106
147
118
375
74
278
33
262
251
355
239
351
306
244
385
199
247
174
215
42
332
130
237
17
225
356
368
51
53
22
83
89
153
132
113
111
112
142
313
16
317
362
82
300
34
273
98
81
56
136
77
312
144
344
333
377
270
71
245
242
70
330
338
322
267
349
203
363
163
175
87
287
184
204
305
206
155
361
263
296
105
217
207
146
291
266
357
122
183
360
120
128
160
30
54
143
148
230
79
254
358
329
366
282
310
124
123
59
219
78
39
293
228
335
62
104
321
331
261
371
299
232
301
353
283
170
249
140
24
256
315
52
384
166
80
50
340
195
19
94
48
179
134
178
387
57
216
327
285
272
38
255
72
201
286
229
302
264
372
276
190
26
158
145
325
3
196
92
314
268
269
380
280
337
181
257
209
139
25
235
103
324
271
202
67
365
18
341
151
47
65
127
27
294
342
73
258
137
90
379
100
288
93
347
58
198
192
108
223
96
194
43
383
7
20
23
149
97
162
46
13
169
297
114
227
66
168
364
86
171
161
75
326
8
2
91
40
152
167
99
220
277
370
211
307
208
265
334
274
328
323
320
234
359
185
60
378
250
176
354
290
6
253
345
210
157
109
49
61
319
348
369
88
4
346
352
11
150
107
304
173
367
36
205
182
309
350
343
189
226
188
200
222
138
381
212
5
63
214
292
95
177
125
129
117
21
102
284
246
374
110
221
279
156
101
197
55
218
224
240
318
131
29
116
376
303
231
236
243
213
259
289
298
186
180
260
386
281
14
35
64
159
164
41
68
141
44
69
15
9
154
373
248
12
275
311
295
238
187
316
32
241
37
382
252
233
31
28
45
172
115
336
193
191
135
10
121
-1
EOF
